p cnf 100 40
x -1 -4 7 -8 -9 -12 -13 -15 -16 17 19 -22 23 24 25 -26 28 -29 -31 -33 34 -41 42 -43 45 46 -50 51 52 -53 -54 -57 -59 60 62 63 64 65 68 69 70 73 -74 -77 78 79 -83 84 85 89 90 -92 -93 -94 98 0
x -2 -4 5 -6 -11 12 -13 -14 16 -18 19 -20 24 25 -26 28 -30 35 -36 -40 42 -43 45 48 49 -50 53 -54 -58 -61 -62 -65 67 68 69 -74 75 -76 -79 80 -82 84 85 86 91 -92 -93 -95 -98 -100 0
x -1 -2 4 6 8 12 -14 18 20 -21 22 26 -27 29 -31 -36 -40 41 -42 -43 -47 49 -57 -58 59 -60 -61 66 -67 -68 69 70 71 -72 73 76 77 -78 83 -85 -86 88 89 -90 91 -96 -97 98 99 -100 0
x -3 4 -5 -8 -9 -11 12 14 -15 -16 17 19 -23 -25 -33 -34 -35 36 -37 38 -39 41 45 47 -50 -56 57 -58 60 -62 65 -69 71 72 -74 75 -79 81 83 -86 88 -90 -91 -92 94 95 96 97 -98 -99 0
x 1 4 -6 7 9 10 13 -15 21 23 -25 27 28 -31 -33 35 36 37 40 44 47 48 51 53 -54 -56 62 64 -67 68 -70 -71 -72 -76 78 -79 -82 -83 86 87 90 -91 -95 96 -98 99 0
x 4 -6 -9 -11 16 18 -19 -20 23 -24 26 28 32 -33 34 35 -38 40 -45 -46 47 48 -53 57 59 -61 62 -63 64 65 -66 -67 68 69 -70 75 76 -81 82 83 89 -91 -94 96 -97 -99 100 0
x -4 5 6 10 -12 -13 17 -18 -21 -24 -26 27 30 -32 36 38 41 43 44 53 -54 56 -57 -58 62 64 -66 67 68 -74 76 -78 83 -85 -87 89 -91 -93 95 96 97 0
x 2 3 -5 6 -8 -9 10 11 -13 -15 -18 19 -21 24 25 -26 -27 28 31 32 33 -34 -36 -39 40 -41 -42 -43 51 -53 -54 57 -58 62 -64 65 67 -69 -70 -71 -72 73 -75 76 84 -85 88 -90 91 -93 94 95 98 0
x 1 2 -4 6 -7 -9 15 -16 -17 -18 -20 22 24 -25 -26 31 -35 36 37 -40 -42 44 -45 46 47 -48 -52 53 -55 -56 57 -58 -59 -60 -61 64 -67 68 69 70 71 78 -79 -80 -81 83 -84 -86 89 -91 92 -93 98 99 0
x 1 3 -5 10 15 -16 19 21 -24 -25 -26 27 -28 29 30 31 36 -37 -38 39 -41 43 45 -46 -52 53 54 56 57 -58 59 -60 -61 69 72 74 78 81 85 -90 -93 94 -99 -100 0
x 1 4 6 11 13 -15 20 21 24 25 -27 -28 -29 -30 32 -33 34 36 37 -38 43 45 -48 50 -52 -54 55 -56 -57 -61 64 66 -67 -68 69 -71 -73 75 -78 -79 -81 -83 -84 85 -86 87 90 -91 92 -94 98 100 0
x -1 -4 5 11 15 18 23 27 29 30 -31 -32 -34 36 -45 46 49 54 55 57 -58 -59 62 63 64 68 71 -74 76 77 78 -81 84 86 -90 -92 93 -95 96 -100 0
x -2 3 4 -10 -11 -12 13 -14 -16 -19 21 27 -28 30 -31 -32 -34 35 37 40 -41 42 -43 45 -46 47 49 50 -51 -52 53 54 56 -57 60 -62 -63 64 66 -67 68 71 72 -73 74 -77 -78 79 82 83 -84 -85 86 88 -92 94 95 97 98 0
x 1 2 -4 -5 -6 -7 8 -11 -12 -16 -20 22 23 25 -29 30 -34 37 -38 39 -43 -44 -47 -50 51 -52 53 -57 60 63 64 -66 -68 -69 70 72 75 76 79 80 82 -84 87 -91 92 -93 97 99 0
x -2 3 7 -9 10 13 17 -18 -22 23 -24 26 27 -30 31 -32 34 37 -39 43 45 -46 49 -50 51 52 53 -54 -55 60 -64 -66 -70 71 -72 74 -77 -78 -80 82 -84 -86 -88 89 92 93 95 -97 0
x 1 -3 -7 14 -15 -17 -18 -19 20 21 22 -24 -27 28 30 34 36 37 38 39 -41 43 45 -46 48 -50 -51 -53 -55 -56 57 -59 -61 63 -64 65 68 -69 73 -74 75 -78 79 80 81 82 83 -84 -88 -90 -91 -92 -93 94 99 100 0
x -2 8 9 10 14 -15 16 -17 -18 19 20 23 -24 -26 29 30 -31 -34 -36 41 44 46 -47 -49 -51 52 -53 54 -56 -57 -59 61 -64 -67 68 -70 73 74 -75 76 77 -80 82 83 84 -85 -86 -89 90 -92 -95 96 -98 -99 0
x -3 -6 7 -11 -15 -19 21 -22 24 -25 27 -29 -31 32 33 -34 35 -37 -38 39 -42 45 46 49 -50 53 -54 -55 -56 57 61 63 64 -65 -66 67 74 -76 77 79 -81 84 85 -87 90 -92 -93 -94 95 98 0
x -5 7 10 11 12 13 14 15 16 -19 21 22 23 24 26 28 29 33 -34 36 37 -40 -41 -44 -45 -47 -48 -49 52 -53 54 -58 59 61 -65 68 70 -73 -76 77 -81 82 -84 -88 -89 -90 96 -97 99 0
x 1 6 -9 13 -14 16 -17 -18 19 20 23 -26 -27 30 -31 33 34 -35 36 -37 38 40 -52 53 54 -56 58 -59 60 -62 63 64 65 -66 -67 -69 70 -74 75 -76 79 82 83 86 -87 89 93 96 -98 -100 0
x 1 -2 -3 6 -7 8 -10 -14 15 16 -19 -21 22 23 -25 26 -27 -28 -29 -30 -31 32 -35 36 42 45 46 -47 -48 49 53 -55 -56 57 -59 -67 68 -70 71 -72 73 74 -76 77 -78 -80 -81 -86 -89 91 96 -98 0
x 4 -5 -6 7 -8 9 14 -19 -20 -21 -23 -26 27 28 31 -33 36 -42 44 49 -50 51 53 -54 57 59 64 65 -67 68 71 73 75 -78 -85 -90 91 -92 96 97 98 -99 100 0
x -1 2 4 5 6 7 9 11 -14 -16 -17 20 -23 -25 -26 -27 -29 31 32 -34 35 36 39 -40 41 -42 -45 -47 48 -52 53 -54 -55 57 -58 62 -63 -64 -67 -68 72 -79 81 -83 84 -85 -88 90 92 94 -96 -98 99 0
x 1 5 6 -7 -8 9 -11 14 -16 17 -18 20 22 -25 27 28 -29 30 -32 -33 -34 35 36 39 41 -43 44 47 -48 -49 57 59 -60 -62 63 -68 69 -71 -81 82 -88 -91 92 93 95 -96 98 0
x -3 4 6 7 8 -9 13 -14 -16 -21 24 26 -27 28 30 -33 37 39 -41 -42 -45 49 -52 -53 55 -57 60 61 62 -65 -66 67 -70 71 74 77 78 -79 80 81 84 -86 -87 -90 -91 -96 100 0
x -1 -3 8 -11 -14 -18 -19 20 24 27 28 30 -31 32 -33 -39 -40 -41 -43 -46 48 -49 50 -51 52 53 54 59 60 -64 66 -67 68 -69 -70 72 -73 74 76 -78 81 -83 84 -85 86 87 88 91 -92 -95 -96 97 98 -99 -100 0
x -1 -2 -4 -5 -6 8 9 10 -13 -14 20 -25 28 29 30 31 -34 36 38 39 43 44 45 46 47 -49 -50 -51 53 54 -55 -56 -57 58 -60 61 -63 64 69 -70 72 73 -74 -77 81 -82 -83 84 -86 91 92 93 -96 -99 0
x -1 6 -7 8 -12 -13 -14 18 22 -23 -25 -27 28 -29 30 -31 -32 34 36 37 -38 -42 -44 -45 -47 -48 50 -53 -57 58 60 65 -66 72 73 75 79 80 -82 84 91 93 96 -97 98 99 0
x -1 2 3 7 -9 10 -11 -16 -18 21 23 27 29 -30 -31 -32 33 35 -38 39 40 -42 -47 48 50 51 53 -57 59 60 61 -68 -69 72 76 84 -86 88 92 93 -96 98 99 -100 0
x 1 -2 7 9 -11 12 -13 -14 -15 -19 22 23 -26 -28 -29 -33 -34 -35 36 37 38 40 -42 43 49 -50 -51 -53 -56 -57 -58 60 -61 -62 65 -67 -69 71 -72 -74 -77 -79 80 -81 83 -86 -89 90 -92 95 -97 -98 -99 0
x 1 -2 4 6 -7 -9 10 12 -13 -15 18 -19 21 23 24 -25 -29 -32 -36 -39 -42 -43 44 -45 -46 47 -49 -50 51 -52 -54 55 -57 58 -59 -62 -63 65 -66 68 -69 -71 73 -75 76 -80 -81 -83 -84 86 -88 -89 -90 92 -93 -94 96 100 0
x 1 -2 -3 -6 7 8 -12 -13 -14 -16 -17 19 -23 26 -28 -33 -36 -37 -38 -39 -40 -44 45 46 48 -50 51 53 54 -55 59 -60 61 63 -65 -66 -67 -68 69 -72 -73 -75 -76 79 -80 -84 -86 -88 89 -90 94 98 99 0
x -1 -2 3 -4 7 -8 11 -16 17 20 24 26 29 31 -42 -45 50 51 -52 54 -55 -58 59 60 -61 65 68 70 72 74 -75 -77 -78 79 80 -81 -83 -84 85 90 92 94 95 -96 -98 -99 -100 0
x -2 3 5 -7 8 9 12 -13 17 -19 -21 -22 -26 -27 32 -34 -35 36 -38 40 -41 -42 43 47 -48 -51 -52 54 -56 -57 -58 59 -60 -64 -65 -69 71 74 -75 -76 -78 79 81 -82 -86 87 -88 90 -91 -92 93 -94 95 -96 97 98 -99 -100 0
x 2 3 4 6 -9 -12 13 -14 -15 16 18 19 21 -24 -25 -28 -30 -31 -34 36 -37 -41 -42 -43 -44 45 46 -47 48 -49 -50 51 -52 55 56 58 -59 -60 -61 63 70 74 75 -78 -81 82 87 -88 89 -92 -93 94 -96 0
x 2 -3 -5 7 -9 -11 13 -15 -16 -18 -19 -23 24 -29 -30 -32 33 -35 -36 -39 40 -44 45 46 47 -49 50 52 -53 -56 -57 -59 63 64 -65 -66 -72 74 -75 78 80 82 -83 -84 88 90 92 94 97 98 -100 0
x -2 3 8 10 -12 14 15 18 -20 -21 22 23 -24 25 26 -28 32 33 34 -39 41 -44 46 -48 -50 -51 52 -56 58 -60 61 62 -64 -65 -66 -68 -70 71 72 -80 81 -82 -83 -84 85 87 -89 90 -92 93 -94 95 -97 -99 0
x 4 -11 -12 15 -19 -21 25 26 -27 -28 -31 35 38 39 -40 -41 -42 -43 44 -45 -46 -49 -50 -53 -54 -55 56 58 -60 61 -64 68 70 73 75 -79 82 84 87 -88 89 -90 95 96 -97 98 0
x -1 2 7 8 9 -10 -12 -14 16 -17 20 22 -25 28 -29 -30 -31 -35 -39 40 42 -43 -44 -48 49 -50 -55 57 58 60 62 63 -64 -65 -66 71 -73 75 79 80 -82 -85 -86 -87 -88 -90 95 -96 -98 99 0
x 3 -4 10 11 -13 -16 -17 -18 19 -20 -21 -22 24 -27 28 29 30 -31 32 33 -36 -37 38 40 -42 47 48 49 50 51 -53 54 -60 -61 63 66 67 68 -69 70 71 75 -78 -79 -80 -83 85 -86 -87 -88 90 -93 -94 98 99 0
g -40